c Generated map
c Size: 13 * 13, weights in range: 1 to 10, walls: False, with ratio 0.0
c dim 2 of 5
c
p sp 169 312
c graph contains 169 nodes and 312 arcs
c
a 1 14 3
a 14 1 3
a 1 2 9
a 2 1 9
a 2 15 4
a 15 2 4
a 2 3 2
a 3 2 2
a 3 16 1
a 16 3 1
a 3 4 5
a 4 3 5
a 4 17 6
a 17 4 6
a 4 5 1
a 5 4 1
a 5 18 6
a 18 5 6
a 5 6 6
a 6 5 6
a 6 19 3
a 19 6 3
a 6 7 1
a 7 6 1
a 7 20 5
a 20 7 5
a 7 8 2
a 8 7 2
a 8 21 9
a 21 8 9
a 8 9 2
a 9 8 2
a 9 22 4
a 22 9 4
a 9 10 9
a 10 9 9
a 10 23 8
a 23 10 8
a 10 11 5
a 11 10 5
a 11 24 5
a 24 11 5
a 11 12 10
a 12 11 10
a 12 25 8
a 25 12 8
a 12 13 4
a 13 12 4
a 13 26 7
a 26 13 7
a 14 27 3
a 27 14 3
a 14 15 10
a 15 14 10
a 15 28 6
a 28 15 6
a 15 16 10
a 16 15 10
a 16 29 7
a 29 16 7
a 16 17 1
a 17 16 1
a 17 30 6
a 30 17 6
a 17 18 8
a 18 17 8
a 18 31 6
a 31 18 6
a 18 19 9
a 19 18 9
a 19 32 6
a 32 19 6
a 19 20 1
a 20 19 1
a 20 33 2
a 33 20 2
a 20 21 8
a 21 20 8
a 21 34 10
a 34 21 10
a 21 22 4
a 22 21 4
a 22 35 2
a 35 22 2
a 22 23 3
a 23 22 3
a 23 36 8
a 36 23 8
a 23 24 7
a 24 23 7
a 24 37 5
a 37 24 5
a 24 25 7
a 25 24 7
a 25 38 5
a 38 25 5
a 25 26 6
a 26 25 6
a 26 39 10
a 39 26 10
a 27 40 7
a 40 27 7
a 27 28 7
a 28 27 7
a 28 41 10
a 41 28 10
a 28 29 6
a 29 28 6
a 29 42 9
a 42 29 9
a 29 30 3
a 30 29 3
a 30 43 10
a 43 30 10
a 30 31 8
a 31 30 8
a 31 44 7
a 44 31 7
a 31 32 1
a 32 31 1
a 32 45 4
a 45 32 4
a 32 33 4
a 33 32 4
a 33 46 1
a 46 33 1
a 33 34 7
a 34 33 7
a 34 47 10
a 47 34 10
a 34 35 5
a 35 34 5
a 35 48 6
a 48 35 6
a 35 36 4
a 36 35 4
a 36 49 4
a 49 36 4
a 36 37 6
a 37 36 6
a 37 50 6
a 50 37 6
a 37 38 6
a 38 37 6
a 38 51 8
a 51 38 8
a 38 39 1
a 39 38 1
a 39 52 7
a 52 39 7
a 40 53 1
a 53 40 1
a 40 41 2
a 41 40 2
a 41 54 9
a 54 41 9
a 41 42 7
a 42 41 7
a 42 55 3
a 55 42 3
a 42 43 6
a 43 42 6
a 43 56 2
a 56 43 2
a 43 44 6
a 44 43 6
a 44 57 6
a 57 44 6
a 44 45 7
a 45 44 7
a 45 58 7
a 58 45 7
a 45 46 8
a 46 45 8
a 46 59 1
a 59 46 1
a 46 47 1
a 47 46 1
a 47 60 2
a 60 47 2
a 47 48 1
a 48 47 1
a 48 61 3
a 61 48 3
a 48 49 2
a 49 48 2
a 49 62 9
a 62 49 9
a 49 50 8
a 50 49 8
a 50 63 3
a 63 50 3
a 50 51 8
a 51 50 8
a 51 64 5
a 64 51 5
a 51 52 6
a 52 51 6
a 52 65 7
a 65 52 7
a 53 66 7
a 66 53 7
a 53 54 1
a 54 53 1
a 54 67 3
a 67 54 3
a 54 55 6
a 55 54 6
a 55 68 7
a 68 55 7
a 55 56 2
a 56 55 2
a 56 69 3
a 69 56 3
a 56 57 4
a 57 56 4
a 57 70 7
a 70 57 7
a 57 58 9
a 58 57 9
a 58 71 10
a 71 58 10
a 58 59 5
a 59 58 5
a 59 72 1
a 72 59 1
a 59 60 7
a 60 59 7
a 60 73 10
a 73 60 10
a 60 61 1
a 61 60 1
a 61 74 2
a 74 61 2
a 61 62 10
a 62 61 10
a 62 75 9
a 75 62 9
a 62 63 10
a 63 62 10
a 63 76 1
a 76 63 1
a 63 64 2
a 64 63 2
a 64 77 4
a 77 64 4
a 64 65 3
a 65 64 3
a 65 78 9
a 78 65 9
a 66 79 1
a 79 66 1
a 66 67 2
a 67 66 2
a 67 80 10
a 80 67 10
a 67 68 9
a 68 67 9
a 68 81 10
a 81 68 10
a 68 69 1
a 69 68 1
a 69 82 9
a 82 69 9
a 69 70 8
a 70 69 8
a 70 83 1
a 83 70 1
a 70 71 6
a 71 70 6
a 71 84 5
a 84 71 5
a 71 72 8
a 72 71 8
a 72 85 4
a 85 72 4
a 72 73 9
a 73 72 9
a 73 86 7
a 86 73 7
a 73 74 7
a 74 73 7
a 74 87 9
a 87 74 9
a 74 75 9
a 75 74 9
a 75 88 4
a 88 75 4
a 75 76 5
a 76 75 5
a 76 89 2
a 89 76 2
a 76 77 2
a 77 76 2
a 77 90 4
a 90 77 4
a 77 78 10
a 78 77 10
a 78 91 7
a 91 78 7
a 79 92 6
a 92 79 6
a 79 80 2
a 80 79 2
a 80 93 5
a 93 80 5
a 80 81 5
a 81 80 5
a 81 94 3
a 94 81 3
a 81 82 10
a 82 81 10
a 82 95 5
a 95 82 5
a 82 83 6
a 83 82 6
a 83 96 10
a 96 83 10
a 83 84 10
a 84 83 10
a 84 97 2
a 97 84 2
a 84 85 2
a 85 84 2
a 85 98 4
a 98 85 4
a 85 86 2
a 86 85 2
a 86 99 4
a 99 86 4
a 86 87 4
a 87 86 4
a 87 100 9
a 100 87 9
a 87 88 4
a 88 87 4
a 88 101 7
a 101 88 7
a 88 89 1
a 89 88 1
a 89 102 4
a 102 89 4
a 89 90 9
a 90 89 9
a 90 103 5
a 103 90 5
a 90 91 4
a 91 90 4
a 91 104 2
a 104 91 2
a 92 105 5
a 105 92 5
a 92 93 4
a 93 92 4
a 93 106 9
a 106 93 9
a 93 94 10
a 94 93 10
a 94 107 4
a 107 94 4
a 94 95 8
a 95 94 8
a 95 108 6
a 108 95 6
a 95 96 5
a 96 95 5
a 96 109 10
a 109 96 10
a 96 97 3
a 97 96 3
a 97 110 6
a 110 97 6
a 97 98 5
a 98 97 5
a 98 111 9
a 111 98 9
a 98 99 5
a 99 98 5
a 99 112 10
a 112 99 10
a 99 100 6
a 100 99 6
a 100 113 7
a 113 100 7
a 100 101 2
a 101 100 2
a 101 114 7
a 114 101 7
a 101 102 4
a 102 101 4
a 102 115 1
a 115 102 1
a 102 103 5
a 103 102 5
a 103 116 3
a 116 103 3
a 103 104 3
a 104 103 3
a 104 117 7
a 117 104 7
a 105 118 3
a 118 105 3
a 105 106 4
a 106 105 4
a 106 119 3
a 119 106 3
a 106 107 2
a 107 106 2
a 107 120 8
a 120 107 8
a 107 108 8
a 108 107 8
a 108 121 9
a 121 108 9
a 108 109 4
a 109 108 4
a 109 122 10
a 122 109 10
a 109 110 3
a 110 109 3
a 110 123 9
a 123 110 9
a 110 111 7
a 111 110 7
a 111 124 6
a 124 111 6
a 111 112 10
a 112 111 10
a 112 125 8
a 125 112 8
a 112 113 4
a 113 112 4
a 113 126 5
a 126 113 5
a 113 114 8
a 114 113 8
a 114 127 4
a 127 114 4
a 114 115 2
a 115 114 2
a 115 128 10
a 128 115 10
a 115 116 6
a 116 115 6
a 116 129 1
a 129 116 1
a 116 117 10
a 117 116 10
a 117 130 3
a 130 117 3
a 118 131 3
a 131 118 3
a 118 119 8
a 119 118 8
a 119 132 9
a 132 119 9
a 119 120 1
a 120 119 1
a 120 133 2
a 133 120 2
a 120 121 1
a 121 120 1
a 121 134 4
a 134 121 4
a 121 122 2
a 122 121 2
a 122 135 2
a 135 122 2
a 122 123 1
a 123 122 1
a 123 136 6
a 136 123 6
a 123 124 5
a 124 123 5
a 124 137 9
a 137 124 9
a 124 125 4
a 125 124 4
a 125 138 1
a 138 125 1
a 125 126 10
a 126 125 10
a 126 139 6
a 139 126 6
a 126 127 4
a 127 126 4
a 127 140 3
a 140 127 3
a 127 128 6
a 128 127 6
a 128 141 2
a 141 128 2
a 128 129 10
a 129 128 10
a 129 142 5
a 142 129 5
a 129 130 5
a 130 129 5
a 130 143 1
a 143 130 1
a 131 144 9
a 144 131 9
a 131 132 9
a 132 131 9
a 132 145 8
a 145 132 8
a 132 133 8
a 133 132 8
a 133 146 9
a 146 133 9
a 133 134 4
a 134 133 4
a 134 147 7
a 147 134 7
a 134 135 5
a 135 134 5
a 135 148 4
a 148 135 4
a 135 136 8
a 136 135 8
a 136 149 2
a 149 136 2
a 136 137 3
a 137 136 3
a 137 150 10
a 150 137 10
a 137 138 9
a 138 137 9
a 138 151 7
a 151 138 7
a 138 139 2
a 139 138 2
a 139 152 10
a 152 139 10
a 139 140 10
a 140 139 10
a 140 153 4
a 153 140 4
a 140 141 8
a 141 140 8
a 141 154 2
a 154 141 2
a 141 142 1
a 142 141 1
a 142 155 4
a 155 142 4
a 142 143 6
a 143 142 6
a 143 156 10
a 156 143 10
a 144 157 1
a 157 144 1
a 144 145 5
a 145 144 5
a 145 158 6
a 158 145 6
a 145 146 6
a 146 145 6
a 146 159 1
a 159 146 1
a 146 147 5
a 147 146 5
a 147 160 6
a 160 147 6
a 147 148 3
a 148 147 3
a 148 161 8
a 161 148 8
a 148 149 6
a 149 148 6
a 149 162 5
a 162 149 5
a 149 150 3
a 150 149 3
a 150 163 9
a 163 150 9
a 150 151 1
a 151 150 1
a 151 164 10
a 164 151 10
a 151 152 10
a 152 151 10
a 152 165 2
a 165 152 2
a 152 153 9
a 153 152 9
a 153 166 3
a 166 153 3
a 153 154 2
a 154 153 2
a 154 167 7
a 167 154 7
a 154 155 9
a 155 154 9
a 155 168 3
a 168 155 3
a 155 156 6
a 156 155 6
a 156 169 7
a 169 156 7
a 157 158 10
a 158 157 10
a 158 159 6
a 159 158 6
a 159 160 7
a 160 159 7
a 160 161 6
a 161 160 6
a 161 162 8
a 162 161 8
a 162 163 9
a 163 162 9
a 163 164 9
a 164 163 9
a 164 165 5
a 165 164 5
a 165 166 8
a 166 165 8
a 166 167 1
a 167 166 1
a 167 168 3
a 168 167 3
a 168 169 10
a 169 168 10
